
===== New CPLEX run =====
Instance: /home/yorig/tuner/mpils-tests/instances/miplib/easy/lotsize.mps
Config: /scratch/yorig/mpils-results-grid-ticks-10000/easy/16proc/seed-9/4_lotsize_seed-9_20260425_202405/iterated_local_search/run_3_worker_12/ils_config_17900127980737993638.prm
========================

Selected objective sense:  MINIMIZE
Selected objective  name:  R1921
Selected RHS        name:  B
Selected bound      name:  BOUND
Version identifier: 22.1.2.0 | 2024-11-26 | 0edbb82fd
CPXPARAM_Threads                                 8
CPXPARAM_Parallel                                1
CPXPARAM_MIP_Strategy_SubAlgorithm               2
CPXPARAM_MIP_Strategy_VariableSelect             2
CPXPARAM_MIP_Cuts_GUBCovers                      1
CPXPARAM_MIP_Limits_GomoryCand                   400
CPXPARAM_MIP_Cuts_Gomory                         1
CPXPARAM_MIP_Cuts_PathCut                        2
CPXPARAM_MIP_Cuts_MIRCut                         2
CPXPARAM_MIP_Cuts_Disjunctive                    1
CPXPARAM_Emphasis_MIP                            1
CPXPARAM_DetTimeLimit                            10000
Tried aggregator 1 time.
MIP Presolve eliminated 595 rows and 0 columns.
MIP Presolve added 1190 rows and 0 columns.
MIP Presolve modified 10 coefficients.
Reduced MIP has 2515 rows, 2985 columns, and 7755 nonzeros.
Reduced MIP has 1195 binaries, 0 generals, 0 SOSs, and 0 indicators.
Presolve time = 0.00 sec. (4.53 ticks)
Probing fixed 0 vars, tightened 5487 bounds.
Probing time = 0.01 sec. (18.38 ticks)
Tried aggregator 2 times.
Detecting symmetries...
MIP Presolve modified 1206 coefficients.
Aggregator did 10 substitutions.
Reduced MIP has 2505 rows, 2975 columns, and 7735 nonzeros.
Reduced MIP has 1195 binaries, 0 generals, 0 SOSs, and 0 indicators.
Presolve time = 0.00 sec. (6.66 ticks)
Probing fixed 0 vars, tightened 2401 bounds.
Probing time = 0.00 sec. (6.41 ticks)
Clique table members: 190.
MIP emphasis: integer feasibility.
MIP search method: dynamic search.
Parallel mode: deterministic, using up to 8 threads.
Root relaxation solution time = 0.01 sec. (9.71 ticks)

        Nodes                                         Cuts/
   Node  Left     Objective  IInf  Best Integer    Best Bound    ItCnt     Gap

      0     0   348385.3466   472                 348385.3466      882         
      0     0   499289.7406   645                   Cuts: 726     1918         
      0     0   647257.2346   671                   Cuts: 726     2829         
*     0+    0                       1.01740e+07   647257.2346            93.64%
*     0+    0                      7973370.0000   647257.2346            91.88%
      0     0   755297.7994   644  7973370.0000     Cuts: 726     3592   90.53%
Detecting symmetries...
      0     2   755297.7994   646  7973370.0000   755297.7994     3592   90.53%
Elapsed time = 0.52 sec. (861.89 ticks, tree = 0.02 MB, solutions = 2)
      8     4   796201.5988   633  7973370.0000   760891.7363     3640   90.46%
     17    12   892267.7745   752  7973370.0000   761341.5531     4501   90.45%
     30    23   865809.8498   742  7973370.0000   782799.8466     6045   90.18%
    131    47   868055.6540   719  7973370.0000   793011.5396     9335   90.05%
    470   343   979369.0335   638  7973370.0000   793011.5396    18048   90.05%
    929   649  1070215.7812   573  7973370.0000   793011.5396    24355   90.05%
   1473  1254  1231972.4370   479  7973370.0000   793011.5396    36385   90.05%

Performing restart 1

Repeating presolve.
Tried aggregator 1 time.
MIP Presolve modified 1287 coefficients.
Reduced MIP has 2505 rows, 2975 columns, and 7735 nonzeros.
Reduced MIP has 1195 binaries, 0 generals, 0 SOSs, and 0 indicators.
Presolve time = 0.00 sec. (3.87 ticks)
Tried aggregator 1 time.
MIP Presolve modified 1008 coefficients.
Reduced MIP has 2505 rows, 2975 columns, and 7735 nonzeros.
Reduced MIP has 1195 binaries, 0 generals, 0 SOSs, and 0 indicators.
Presolve time = 0.00 sec. (5.12 ticks)
Represolve time = 0.02 sec. (19.70 ticks)
   1789     0   935525.9016   761  7973370.0000     Cuts: 726    51870   88.27%
   1789     0  1057734.9971   728  7973370.0000     Cuts: 726    52844   86.73%
   1789     0  1145368.9532   713  7973370.0000     Cuts: 726    53690   85.64%
   1789     2  1145368.9532   713  7973370.0000  1145368.9532    53690   85.64%
   1790     3  1146212.6231   706  7973370.0000  1145377.6178    53727   85.63%
   1806    19  1174862.8961   678  7973370.0000  1145377.6178    54178   85.63%
Elapsed time = 4.55 sec. (6702.68 ticks, tree = 0.12 MB, solutions = 2)
   1817     4  1155840.1038   701  7973370.0000  1150060.6643    53862   85.58%
   1831    40  1285910.6919   772  7973370.0000  1150060.6643    69942   85.58%
   2192   234  1353285.4152   685  7973370.0000  1150060.6643    88414   85.58%

GUB cover cuts applied:  0
Cover cuts applied:  42
Implied bound cuts applied:  14
Flow cuts applied:  409
Mixed integer rounding cuts applied:  1601
Flow path cuts applied:  69
Multi commodity flow cuts applied:  27
Lift and project cuts applied:  24
Gomory fractional cuts applied:  30
Disjunctive cuts applied:  0
Cone linearizations applied:  0

Root node processing (before b&c):
  Real time             =    0.51 sec. (859.41 ticks)
Parallel b&c, 8 threads:
  Real time             =    6.31 sec. (9143.30 ticks)
  Sync time (average)   =    0.95 sec.
  Wait time (average)   =    0.00 sec.
                          ------------
Total (root+branch&cut) =    6.82 sec. (10002.72 ticks)
Gap: 85.58%
Upper bound: 7.97337e+06
Lower bound: 1.15006e+06
End of CPLEX run. Time: 6.82422 seconds

===== New CPLEX run =====
Instance: /home/yorig/tuner/mpils-tests/instances/miplib/easy/lotsize.mps
Config: /scratch/yorig/mpils-results-grid-ticks-10000/easy/16proc/seed-9/4_lotsize_seed-9_20260425_202405/iterated_local_search/run_3_worker_12/ils_config_11991974253924650751.prm
========================

Selected objective sense:  MINIMIZE
Selected objective  name:  R1921
Selected RHS        name:  B
Selected bound      name:  BOUND
Version identifier: 22.1.2.0 | 2024-11-26 | 0edbb82fd
CPXPARAM_Threads                                 8
CPXPARAM_Parallel                                1
CPXPARAM_MIP_Strategy_SubAlgorithm               2
CPXPARAM_MIP_Strategy_VariableSelect             2
CPXPARAM_MIP_Cuts_Implied                        -1
CPXPARAM_MIP_Cuts_GUBCovers                      1
CPXPARAM_MIP_Limits_GomoryCand                   400
CPXPARAM_MIP_Cuts_Gomory                         1
CPXPARAM_MIP_Cuts_PathCut                        2
CPXPARAM_MIP_Cuts_MIRCut                         2
CPXPARAM_MIP_Cuts_Disjunctive                    1
CPXPARAM_Emphasis_MIP                            1
CPXPARAM_DetTimeLimit                            10000
Tried aggregator 1 time.
MIP Presolve eliminated 595 rows and 0 columns.
MIP Presolve added 1190 rows and 0 columns.
MIP Presolve modified 10 coefficients.
Reduced MIP has 2515 rows, 2985 columns, and 7755 nonzeros.
Reduced MIP has 1195 binaries, 0 generals, 0 SOSs, and 0 indicators.
Presolve time = 0.00 sec. (4.53 ticks)
Probing fixed 0 vars, tightened 5487 bounds.
Probing time = 0.01 sec. (18.38 ticks)
Tried aggregator 2 times.
Detecting symmetries...
MIP Presolve modified 1206 coefficients.
Aggregator did 10 substitutions.
Reduced MIP has 2505 rows, 2975 columns, and 7735 nonzeros.
Reduced MIP has 1195 binaries, 0 generals, 0 SOSs, and 0 indicators.
Presolve time = 0.00 sec. (6.66 ticks)
Probing fixed 0 vars, tightened 2401 bounds.
Probing time = 0.00 sec. (6.41 ticks)
Clique table members: 190.
MIP emphasis: integer feasibility.
MIP search method: dynamic search.
Parallel mode: deterministic, using up to 8 threads.
Root relaxation solution time = 0.01 sec. (9.71 ticks)

        Nodes                                         Cuts/
   Node  Left     Objective  IInf  Best Integer    Best Bound    ItCnt     Gap

      0     0   348385.3466   472                 348385.3466      882         
      0     0   498929.0321   644                   Cuts: 726     1919         
      0     0   645464.1696   672                   Cuts: 726     2836         
*     0+    0                       1.01740e+07   645464.1696            93.66%
*     0+    0                      7973370.0000   645464.1696            91.90%
      0     0   756795.5025   644  7973370.0000     Cuts: 726     3603   90.51%
Detecting symmetries...
      0     2   756795.5025   644  7973370.0000   756795.5025     3603   90.51%
Elapsed time = 0.52 sec. (855.44 ticks, tree = 0.02 MB, solutions = 2)
      4     4   792207.1718   636  7973370.0000   760057.7882     3651   90.47%
      6     8   864856.4815   744  7973370.0000   760057.7882     4454   90.47%
     13     6   816056.7215   741  7973370.0000   785631.5984     4320   90.15%
     23    15   979740.4853   729  7973370.0000   785631.5984     6810   90.15%
     72    45   982147.3338   713  7973370.0000   816246.9663    12545   89.76%
    309   225  1053167.0454   734  7973370.0000   816246.9663    19238   89.76%
    622   348  1120466.1340   586  7973370.0000   816246.9663    21943   89.76%
    856   645  1259072.4753   538  7973370.0000   816246.9663    28454   89.76%
   1155  1022  1464881.8971   462  7973370.0000   816246.9663    35756   89.76%

Performing restart 1

Repeating presolve.
Tried aggregator 1 time.
MIP Presolve modified 1232 coefficients.
Reduced MIP has 2505 rows, 2975 columns, and 7735 nonzeros.
Reduced MIP has 1195 binaries, 0 generals, 0 SOSs, and 0 indicators.
Presolve time = 0.00 sec. (3.85 ticks)
Tried aggregator 1 time.
MIP Presolve modified 1014 coefficients.
Reduced MIP has 2505 rows, 2975 columns, and 7735 nonzeros.
Reduced MIP has 1195 binaries, 0 generals, 0 SOSs, and 0 indicators.
Presolve time = 0.00 sec. (5.12 ticks)
Represolve time = 0.02 sec. (19.81 ticks)
   1724     0  1046478.4407   752  7973370.0000     Cuts: 726    52936   86.88%
   1724     0  1148853.5928   734  7973370.0000     Cuts: 726    53870   85.59%
   1724     0  1204529.5518   690  7973370.0000     Cuts: 726    54552   84.89%
   1724     2  1204529.5515   690  7973370.0000  1204529.5518    54552   84.89%
Elapsed time = 4.46 sec. (6525.98 ticks, tree = 0.02 MB, solutions = 2)
   1726     4  1206572.4128   672  7973370.0000  1204542.0572    54733   84.89%
   1729     4  1206804.5755   685  7973370.0000  1204542.0572    54642   84.89%

GUB cover cuts applied:  0
Cover cuts applied:  25
Flow cuts applied:  349
Mixed integer rounding cuts applied:  1445
Flow path cuts applied:  55
Multi commodity flow cuts applied:  24
Lift and project cuts applied:  21
Gomory fractional cuts applied:  22
Disjunctive cuts applied:  0
Cone linearizations applied:  0

Root node processing (before b&c):
  Real time             =    0.51 sec. (852.96 ticks)
Parallel b&c, 8 threads:
  Real time             =    6.03 sec. (9153.06 ticks)
  Sync time (average)   =    1.43 sec.
  Wait time (average)   =    0.00 sec.
                          ------------
Total (root+branch&cut) =    6.54 sec. (10006.01 ticks)
Gap: 84.85%
Upper bound: 7.97337e+06
Lower bound: 1.20787e+06
End of CPLEX run. Time: 6.54185 seconds

===== New CPLEX run =====
Instance: /home/yorig/tuner/mpils-tests/instances/miplib/easy/lotsize.mps
Config: /scratch/yorig/mpils-results-grid-ticks-10000/easy/16proc/seed-9/4_lotsize_seed-9_20260425_202405/iterated_local_search/run_3_worker_12/ils_config_7948779850416836453.prm
========================

Selected objective sense:  MINIMIZE
Selected objective  name:  R1921
Selected RHS        name:  B
Selected bound      name:  BOUND
Version identifier: 22.1.2.0 | 2024-11-26 | 0edbb82fd
CPXPARAM_Threads                                 8
CPXPARAM_Parallel                                1
CPXPARAM_MIP_Strategy_SubAlgorithm               2
CPXPARAM_MIP_Strategy_VariableSelect             2
CPXPARAM_MIP_Cuts_Implied                        -1
CPXPARAM_MIP_Cuts_GUBCovers                      1
CPXPARAM_MIP_Limits_GomoryCand                   10
CPXPARAM_MIP_Cuts_Gomory                         1
CPXPARAM_MIP_Cuts_PathCut                        2
CPXPARAM_MIP_Cuts_MIRCut                         2
CPXPARAM_MIP_Cuts_Disjunctive                    1
CPXPARAM_Emphasis_MIP                            1
CPXPARAM_DetTimeLimit                            10000
Tried aggregator 1 time.
MIP Presolve eliminated 595 rows and 0 columns.
MIP Presolve added 1190 rows and 0 columns.
MIP Presolve modified 10 coefficients.
Reduced MIP has 2515 rows, 2985 columns, and 7755 nonzeros.
Reduced MIP has 1195 binaries, 0 generals, 0 SOSs, and 0 indicators.
Presolve time = 0.00 sec. (4.53 ticks)
Probing fixed 0 vars, tightened 5487 bounds.
Probing time = 0.01 sec. (18.38 ticks)
Tried aggregator 2 times.
Detecting symmetries...
MIP Presolve modified 1206 coefficients.
Aggregator did 10 substitutions.
Reduced MIP has 2505 rows, 2975 columns, and 7735 nonzeros.
Reduced MIP has 1195 binaries, 0 generals, 0 SOSs, and 0 indicators.
Presolve time = 0.00 sec. (6.66 ticks)
Probing fixed 0 vars, tightened 2401 bounds.
Probing time = 0.00 sec. (6.41 ticks)
Clique table members: 190.
MIP emphasis: integer feasibility.
MIP search method: dynamic search.
Parallel mode: deterministic, using up to 8 threads.
Root relaxation solution time = 0.01 sec. (9.71 ticks)

        Nodes                                         Cuts/
   Node  Left     Objective  IInf  Best Integer    Best Bound    ItCnt     Gap

      0     0   348385.3466   472                 348385.3466      882         
      0     0   426892.2924   568                   Cuts: 726     1557         
      0     0   602285.8633   558                   Cuts: 726     2167         
      0     0   707859.8174   653                   Cuts: 726     2759         
*     0+    0                       1.01740e+07   707859.8174            93.04%
*     0+    0                      7973370.0000   707859.8174            91.12%
Detecting symmetries...
      0     2   707859.8174   654  7973370.0000   707859.8174     2759   91.12%
Elapsed time = 0.49 sec. (766.05 ticks, tree = 0.02 MB, solutions = 2)
      3     3   748295.5006   647  7973370.0000   711309.7317     2795   91.08%
      7     6   856315.6196   722  7973370.0000   711784.1257     3565   91.07%
     15     8   849199.9819   724  7973370.0000   732218.6955     3524   90.82%
    169    33   912208.5051   683  7973370.0000   815669.6945     7832   89.77%
    552   324  1093537.2907   605  7973370.0000   824187.5648    12379   89.66%
   1106   773  1305110.6076   519  7973370.0000   824187.5648    17654   89.66%
   1779  1313  1365796.5218   493  7973370.0000   824187.5648    22977   89.66%

Performing restart 1

Repeating presolve.
Tried aggregator 1 time.
MIP Presolve modified 1292 coefficients.
Reduced MIP has 2505 rows, 2975 columns, and 7735 nonzeros.
Reduced MIP has 1195 binaries, 0 generals, 0 SOSs, and 0 indicators.
Presolve time = 0.00 sec. (3.88 ticks)
Tried aggregator 1 time.
MIP Presolve modified 1010 coefficients.
Reduced MIP has 2505 rows, 2975 columns, and 7735 nonzeros.
Reduced MIP has 1195 binaries, 0 generals, 0 SOSs, and 0 indicators.
Presolve time = 0.00 sec. (5.12 ticks)
Represolve time = 0.02 sec. (19.01 ticks)
   1925     0   955371.7779   742  7973370.0000     Cuts: 726    32753   88.02%
   1925     0  1070757.6867   737  7973370.0000     Cuts: 726    33831   86.57%
   1925     0  1156221.7472   725  7973370.0000     Cuts: 726    34607   85.50%
   1925     2  1156221.7472   730  7973370.0000  1156221.7472    34607   85.50%
   1926     3  1158014.7376   729  7973370.0000  1158108.8133    34608   85.48%
   1931     7  1285105.1057   749  7973370.0000  1160686.0639    36165   85.44%
Elapsed time = 4.13 sec. (6272.28 ticks, tree = 0.02 MB, solutions = 2)
   1949    20  1299016.7942   754  7973370.0000  1179973.3514    41012   85.20%
   2004    31  1383554.2935   778  7973370.0000  1186795.0148    47571   85.12%
   2148   115  1386952.5442   733  7973370.0000  1186795.0148    70282   85.12%

GUB cover cuts applied:  0
Clique cuts applied:  2
Cover cuts applied:  25
Flow cuts applied:  366
Mixed integer rounding cuts applied:  1697
Flow path cuts applied:  65
Multi commodity flow cuts applied:  44
Lift and project cuts applied:  1
Gomory fractional cuts applied:  2
Disjunctive cuts applied:  0
Cone linearizations applied:  0

Root node processing (before b&c):
  Real time             =    0.48 sec. (763.52 ticks)
Parallel b&c, 8 threads:
  Real time             =    5.97 sec. (9240.35 ticks)
  Sync time (average)   =    0.84 sec.
  Wait time (average)   =    0.00 sec.
                          ------------
Total (root+branch&cut) =    6.45 sec. (10003.87 ticks)
Gap: 85.12%
Upper bound: 7.97337e+06
Lower bound: 1.1868e+06
End of CPLEX run. Time: 6.45321 seconds

===== New CPLEX run =====
Instance: /home/yorig/tuner/mpils-tests/instances/miplib/easy/lotsize.mps
Config: /scratch/yorig/mpils-results-grid-ticks-10000/easy/16proc/seed-9/4_lotsize_seed-9_20260425_202405/iterated_local_search/run_3_worker_12/ils_config_8565550340894196567.prm
========================

Selected objective sense:  MINIMIZE
Selected objective  name:  R1921
Selected RHS        name:  B
Selected bound      name:  BOUND
Version identifier: 22.1.2.0 | 2024-11-26 | 0edbb82fd
CPXPARAM_Threads                                 8
CPXPARAM_Parallel                                1
CPXPARAM_MIP_Strategy_SubAlgorithm               2
CPXPARAM_MIP_Strategy_VariableSelect             2
CPXPARAM_MIP_Cuts_Implied                        -1
CPXPARAM_MIP_Cuts_GUBCovers                      1
CPXPARAM_MIP_Limits_GomoryCand                   400
CPXPARAM_MIP_Cuts_Gomory                         1
CPXPARAM_MIP_Cuts_PathCut                        -1
CPXPARAM_MIP_Cuts_MIRCut                         2
CPXPARAM_MIP_Cuts_Disjunctive                    1
CPXPARAM_Emphasis_MIP                            1
CPXPARAM_DetTimeLimit                            10000
Tried aggregator 1 time.
MIP Presolve eliminated 595 rows and 0 columns.
MIP Presolve added 1190 rows and 0 columns.
MIP Presolve modified 10 coefficients.
Reduced MIP has 2515 rows, 2985 columns, and 7755 nonzeros.
Reduced MIP has 1195 binaries, 0 generals, 0 SOSs, and 0 indicators.
Presolve time = 0.00 sec. (4.53 ticks)
Probing fixed 0 vars, tightened 5487 bounds.
Probing time = 0.01 sec. (18.38 ticks)
Tried aggregator 2 times.
Detecting symmetries...
MIP Presolve modified 1206 coefficients.
Aggregator did 10 substitutions.
Reduced MIP has 2505 rows, 2975 columns, and 7735 nonzeros.
Reduced MIP has 1195 binaries, 0 generals, 0 SOSs, and 0 indicators.
Presolve time = 0.00 sec. (6.66 ticks)
Probing fixed 0 vars, tightened 2401 bounds.
Probing time = 0.00 sec. (6.41 ticks)
Clique table members: 190.
MIP emphasis: integer feasibility.
MIP search method: dynamic search.
Parallel mode: deterministic, using up to 8 threads.
Root relaxation solution time = 0.01 sec. (9.71 ticks)

        Nodes                                         Cuts/
   Node  Left     Objective  IInf  Best Integer    Best Bound    ItCnt     Gap

      0     0   348385.3466   472                 348385.3466      882         
      0     0   498929.0321   644                   Cuts: 726     1919         
      0     0   640817.4813   679                   Cuts: 726     2849         
*     0+    0                       1.01740e+07   640817.4813            93.70%
*     0+    0                      7973370.0000   640817.4813            91.96%
      0     0   760386.6228   611  7973370.0000     Cuts: 726     3609   90.46%
Detecting symmetries...
      0     2   760386.6228   612  7973370.0000   777650.9811     3609   90.25%
Elapsed time = 0.45 sec. (734.23 ticks, tree = 0.02 MB, solutions = 2)
      3     5   820144.3868   737  7973370.0000   794529.8042     4334   90.04%
      9     4   895273.5736   731  7973370.0000   820622.6139     4335   89.71%
     24    17   899444.4405   719  7973370.0000   820833.3755     6548   89.71%
     42    23  1020274.8539   711  7973370.0000   820833.3755     7411   89.71%
    106    74  1065937.2074   697  7973370.0000   820833.3755    16521   89.71%
    379   203  1052784.6097   631  7973370.0000   820833.3755    20583   89.71%
    648   576  1108046.1613   590  7973370.0000   820833.3755    25861   89.71%
    943   693  1090749.1351   621  7973370.0000   820833.3755    27569   89.71%
   1327   940  1253371.2834   424  7973370.0000   820833.3755    30825   89.71%

Performing restart 1

Repeating presolve.
Tried aggregator 1 time.
MIP Presolve modified 1283 coefficients.
Reduced MIP has 2505 rows, 2975 columns, and 7735 nonzeros.
Reduced MIP has 1195 binaries, 0 generals, 0 SOSs, and 0 indicators.
Presolve time = 0.00 sec. (3.87 ticks)
Tried aggregator 1 time.
MIP Presolve modified 1013 coefficients.
Reduced MIP has 2505 rows, 2975 columns, and 7735 nonzeros.
Reduced MIP has 1195 binaries, 0 generals, 0 SOSs, and 0 indicators.
Presolve time = 0.00 sec. (5.12 ticks)
Represolve time = 0.02 sec. (19.73 ticks)
   1930     0  1051600.4947   748  7973370.0000     Cuts: 726    50568   86.81%
   1930     0  1152973.9814   696  7973370.0000     Cuts: 726    51386   85.54%
   1930     0  1213853.0811   693  7973370.0000     Cuts: 726    52131   84.78%
   1930     2  1213853.0811   696  7973370.0000  1213853.0811    52131   84.78%
Elapsed time = 4.11 sec. (6037.53 ticks, tree = 0.02 MB, solutions = 2)
   1945    16  1231382.7319   657  7973370.0000  1213983.3619    52518   84.77%
   1955    18  1306856.7339   689  7973370.0000  1216498.2456    54134   84.74%
   1982    38  1311473.6686   742  7973370.0000  1229187.9384    66971   84.58%
   2211   140  1361564.3299   673  7973370.0000  1229187.9384    75314   84.58%

GUB cover cuts applied:  0
Cover cuts applied:  30
Flow cuts applied:  386
Mixed integer rounding cuts applied:  1559
Multi commodity flow cuts applied:  25
Lift and project cuts applied:  24
Gomory fractional cuts applied:  18
Disjunctive cuts applied:  0
Cone linearizations applied:  0

Root node processing (before b&c):
  Real time             =    0.44 sec. (731.90 ticks)
Parallel b&c, 8 threads:
  Real time             =    6.65 sec. (9271.49 ticks)
  Sync time (average)   =    1.07 sec.
  Wait time (average)   =    0.01 sec.
                          ------------
Total (root+branch&cut) =    7.10 sec. (10003.39 ticks)
Gap: 84.58%
Upper bound: 7.97337e+06
Lower bound: 1.22919e+06
End of CPLEX run. Time: 7.09778 seconds

===== New CPLEX run =====
Instance: /home/yorig/tuner/mpils-tests/instances/miplib/easy/lotsize.mps
Config: /scratch/yorig/mpils-results-grid-ticks-10000/easy/16proc/seed-9/4_lotsize_seed-9_20260425_202405/iterated_local_search/run_3_worker_12/ils_config_4351807294491324479.prm
========================

Selected objective sense:  MINIMIZE
Selected objective  name:  R1921
Selected RHS        name:  B
Selected bound      name:  BOUND
Version identifier: 22.1.2.0 | 2024-11-26 | 0edbb82fd
CPXPARAM_Threads                                 8
CPXPARAM_Parallel                                1
CPXPARAM_MIP_Strategy_SubAlgorithm               2
CPXPARAM_MIP_Strategy_VariableSelect             2
CPXPARAM_MIP_Cuts_Implied                        -1
CPXPARAM_MIP_Cuts_GUBCovers                      1
CPXPARAM_MIP_Limits_GomoryCand                   400
CPXPARAM_MIP_Cuts_Gomory                         1
CPXPARAM_MIP_Cuts_PathCut                        -1
CPXPARAM_MIP_Cuts_MIRCut                         2
CPXPARAM_MIP_Cuts_Disjunctive                    1
CPXPARAM_Emphasis_MIP                            5
CPXPARAM_DetTimeLimit                            10000
Tried aggregator 1 time.
MIP Presolve eliminated 595 rows and 0 columns.
MIP Presolve added 1190 rows and 0 columns.
MIP Presolve modified 10 coefficients.
Reduced MIP has 2515 rows, 2985 columns, and 7755 nonzeros.
Reduced MIP has 1195 binaries, 0 generals, 0 SOSs, and 0 indicators.
Presolve time = 0.00 sec. (4.53 ticks)
Probing fixed 0 vars, tightened 5487 bounds.
Probing time = 0.01 sec. (18.38 ticks)
Tried aggregator 2 times.
Detecting symmetries...
MIP Presolve modified 1206 coefficients.
Aggregator did 10 substitutions.
Reduced MIP has 2505 rows, 2975 columns, and 7735 nonzeros.
Reduced MIP has 1195 binaries, 0 generals, 0 SOSs, and 0 indicators.
Presolve time = 0.00 sec. (6.66 ticks)
Probing fixed 0 vars, tightened 2401 bounds.
Probing time = 0.00 sec. (6.41 ticks)
Clique table members: 190.
MIP emphasis: heuristic.
MIP search method: dynamic search.
Parallel mode: deterministic, using up to 8 threads.
Root relaxation solution time = 0.01 sec. (9.71 ticks)

        Nodes                                         Cuts/
   Node  Left     Objective  IInf  Best Integer    Best Bound    ItCnt     Gap

      0     0   348385.3466   472                 348385.3466      882         
*     0+    0                       1.40386e+07   348385.3466            97.52%
*     0+    0                       1.01740e+07   348385.3466            96.58%
*     0+    0                      7973370.0000   348385.3466            95.63%
      0     0   498675.7684   644  7973370.0000     Cuts: 726     1918   89.25%
      0     0   698082.4989   610  7973370.0000     Cuts: 726     2821   88.00%
      0     0   899249.6926   611  7973370.0000     Cuts: 726     3655   87.20%
*     0+    0                      2869313.0000  1020462.3249            64.44%
      0     0  1058368.2775   646  2869313.0000     Cuts: 726     4665   60.27%
      0     0  1149451.8583   634  2869313.0000     Cuts: 726     5369   58.54%
Detecting symmetries...
      0     0  1204359.0328   677  2869313.0000     Cuts: 726     6008   57.11%
      0     0  1241723.2317   703  2869313.0000     Cuts: 613     6604   56.31%
      0     0  1265234.9981   698  2869313.0000     Cuts: 487     7085   55.80%
*     0+    0                      2866795.0000  1268377.7244            55.76%
      0     0  1283717.3198   713  2866795.0000     Cuts: 447     7566   55.22%
*     0+    0                      2753233.0000  1283717.3198            53.37%
      0     0  1292168.0186   722  2753233.0000     Cuts: 306     7886   53.07%
      0     0  1297296.1436   725  2753233.0000     Cuts: 307     8141   52.88%
      0     0  1300533.6576   725  2753233.0000     Cuts: 190     8332   52.76%
      0     0  1302710.8378   726  2753233.0000     Cuts: 181     8526   52.68%
      0     0  1304739.5846   740  2753233.0000     Cuts: 125     8677   52.61%
      0     0  1307086.2841   736  2753233.0000     Cuts: 126     8777   52.53%
      0     0  1308242.6672   741  2753233.0000      Cuts: 70     8881   52.48%
      0     0  1310950.3542   728  2753233.0000      Cuts: 85     9006   52.39%
      0     0  1312511.6226   765  2753233.0000      Cuts: 85     9121   52.33%
      0     0  1313062.1116   768  2753233.0000      Cuts: 45     9168   52.31%
      0     0  1313396.2636   769  2753233.0000      Cuts: 25     9210   52.30%
*     0+    0                      2727538.0000  1313396.2636            51.85%
      0     0  1314255.1994   763  2727538.0000      Cuts: 34     9284   51.82%
      0     0  1315049.3560   776  2727538.0000      Cuts: 55     9347   51.79%
      0     0  1315719.6181   764  2727538.0000      Cuts: 67     9404   51.76%
      0     0  1315904.4310   766  2727538.0000      Cuts: 38     9438   51.75%
*     0+    0                      2716132.0000  1315904.4310            51.55%
      0     0  1316328.2328   766  2716132.0000      Cuts: 15     9480   51.54%
      0     0  1316496.3724   767  2716132.0000      Cuts: 58     9517   51.53%
*     0+    0                      2678761.0000  1316496.3724            50.85%
*     0+    0                      2504195.0000  1316496.3724            47.43%
*     0+    0                      2470665.0000  1316496.3724            46.71%
*     0+    0                      2236435.0000  1316496.3724            41.13%
*     0+    0                      2168732.0000  1316496.3724            39.30%
*     0+    0                      2168002.0000  1316496.3724            39.28%
*     0+    0                      2158960.0000  1316496.3724            39.02%
      0     0  -1.00000e+75     0  2158960.0000  1316496.3724     9517   39.02%
*     0+    0                      2121655.0000  1316496.3724            37.95%
*     0+    0                      2064541.0000  1316496.3724            36.23%
*     0+    0                      2059988.0000  1316496.3724            36.09%
*     0+    0                      2003213.0000  1316496.3724            34.28%
*     0+    0                      2000194.0000  1316496.3724            34.18%
Advanced basis not built.
      0     0  -1.00000e+75     0  2000194.0000  1316496.3724     9517   34.18%

GUB cover cuts applied:  0
Clique cuts applied:  1
Cover cuts applied:  15
Mixed integer rounding cuts applied:  1490
Multi commodity flow cuts applied:  40
Gomory fractional cuts applied:  14
Disjunctive cuts applied:  0
Cone linearizations applied:  0

Root node processing (before b&c):
  Real time             =    6.01 sec. (10010.72 ticks)
Parallel b&c, 8 threads:
  Real time             =    0.00 sec. (0.00 ticks)
  Sync time (average)   =    0.00 sec.
  Wait time (average)   =    0.00 sec.
                          ------------
Total (root+branch&cut) =    6.01 sec. (10010.72 ticks)
Gap: 34.18%
Upper bound: 2.00019e+06
Lower bound: 1.3165e+06
End of CPLEX run. Time: 6.00972 seconds
